; ./seahorn/./sv_comp_flat_small/termination-numeric/b.10_true-termination.c.flat_000.smt2
(set-logic HORN)

(declare-fun |main_1| ( Int Int Int Int ) Bool)

(assert
  (forall ( (A Int) (B Int) (C Int) (v_3 Int) ) 
    (=>
      (and
        (and true (= 0 v_3))
      )
      (main_1 v_3 A B C)
    )
  )
)
(assert
  (forall ( (A Int) (B Int) (C Bool) (D Int) (E Int) (F Int) (G Bool) (H Int) (I Int) (J Bool) (K Bool) (L Bool) (M Bool) (N Int) (O Int) (P Int) (Q Int) (R Int) (v_18 Int) (v_19 Int) ) 
    (=>
      (and
        (main_1 v_18 D E F)
        (and (= 0 v_18)
     (= B (+ H I))
     (or (= O I) (not J) (not M))
     (or (= N H) (not J) (not M))
     (or (= A P) (not J) (not M))
     (or (= R O) (not J) (not M))
     (or (= Q N) (not J) (not M))
     (or (= P 0) (not J) (not M))
     (or C (not G) (not K))
     (or (not L) (and J M))
     (or (not J) (and G K))
     (= L true)
     (not (= (<= B 0) C))
     (= 1 v_19))
      )
      (main_1 v_19 A Q R)
    )
  )
)
(assert
  (forall ( (A Int) (B Bool) (C Int) (D Int) (E Int) (F Int) (G Bool) (H Int) (I Int) (J Bool) (K Bool) (L Int) (M Bool) (N Bool) (v_14 Int) (v_15 Int) ) 
    (=>
      (and
        (main_1 v_14 D E F)
        (and (= 0 v_14)
     (= A (+ H I))
     (or (= C L) (not G) (not K))
     (or (= L 0) (not G) (not K))
     (or (not B) (not G) (not K))
     (or (not M) (and J N))
     (or (not J) (and G K))
     (= M true)
     (not (= (<= A 0) B))
     (= 2 v_15))
      )
      (main_1 v_15 D E F)
    )
  )
)
(assert
  (forall ( (A Int) (B Bool) (C Bool) (D Int) (E Bool) (F Int) (G Int) (H Int) (I Int) (J Bool) (K Int) (L Int) (M Int) (N Int) (O Int) (P Bool) (Q Bool) (R Int) (S Bool) (T Bool) (U Int) (V Bool) (W Bool) (X Bool) (Y Int) (Z Int) (A1 Int) (B1 Int) (C1 Int) (D1 Int) (E1 Int) (F1 Bool) (G1 Bool) (v_33 Int) (v_34 Int) ) 
    (=>
      (and
        (main_1 v_33 G H I)
        (let ((a!1 (or (not P) (not (= (<= I 0) C))))
      (a!2 (or (not V) (not (= (<= A 0) B)))))
  (and (= 1 v_33)
       (or (= B1 U) (not S) (not X))
       (or (= A1 I) (not S) (not X))
       (or (= D1 B1) (not S) (not X))
       (or (= C1 A1) (not S) (not X))
       (or (= Z H) (not P) (not W))
       (or (= Y R) (not P) (not W))
       (or (= D1 Z) (not P) (not W))
       (or (= C1 Y) (not P) (not W))
       (or E (not J) (not T))
       (or (not E) (not J) (not Q))
       (or (and P W) (and S X) (not V))
       (or (= O L) (not V) (not G1))
       (or (= N K) (not V) (not G1))
       (or (= M E1) (not V) (not G1))
       (or (= L C1) (not V) (not G1))
       (or (= K D1) (not V) (not G1))
       (or (= F M) (not V) (not G1))
       (or B (not V) (not G1))
       (or (not S) (= U (+ (- 1) H)))
       (or (not S) (and J T))
       a!1
       (or (not P) (= R (+ D I)))
       (or (not P) (= D (ite C (- 1) 0)))
       (or (not P) (and J Q))
       (or (not F1) (and V G1))
       a!2
       (or (not V) (= A (+ D1 C1)))
       (or (not V) (= E1 (+ 1 G)))
       (= F1 true)
       (not (= (<= H 0) E))
       (= 1 v_34)))
      )
      (main_1 v_34 F N O)
    )
  )
)
(assert
  (forall ( (A Int) (B Bool) (C Int) (D Bool) (E Int) (F Bool) (G Int) (H Int) (I Int) (J Int) (K Bool) (L Bool) (M Int) (N Bool) (O Bool) (P Bool) (Q Bool) (R Int) (S Bool) (T Bool) (U Int) (V Bool) (W Bool) (X Bool) (Y Int) (Z Int) (A1 Int) (B1 Int) (C1 Int) (D1 Int) (E1 Int) (F1 Bool) (G1 Bool) (H1 Int) (I1 Bool) (v_35 Int) (v_36 Int) ) 
    (=>
      (and
        (main_1 v_35 H I J)
        (let ((a!1 (or (not P) (not (= (<= J 0) D))))
      (a!2 (or (not V) (not (= (<= A 0) B)))))
  (and (= 1 v_35)
       (or (not F) (not K) (not Q))
       (or (not V) (and X S) (and W P))
       (or (= C H1) (not V) (not G1))
       (or (= H1 E1) (not V) (not G1))
       (or (not B) (not V) (not G1))
       (or (= G M) (not F1) (not I1))
       (or (= M C) (not F1) (not I1))
       (or (not W) (not P) (= D1 Z))
       (or (not W) (not P) (= C1 Y))
       (or (not W) (not P) (= Z I))
       (or (not W) (not P) (= Y R))
       (or (not X) (not S) (= B1 U))
       (or (not X) (not S) (= D1 B1))
       (or (not X) (not S) (= C1 A1))
       (or (not X) (not S) (= A1 J))
       (or F (not T) (not K))
       a!1
       (or (not P) (= E (ite D (- 1) 0)))
       (or (not P) (= R (+ E J)))
       (or (not P) (and K Q))
       (or (not N) (and L O))
       a!2
       (or (not V) (= A (+ D1 C1)))
       (or (not V) (= E1 (+ 1 H)))
       (or (not S) (= U (+ (- 1) I)))
       (or (not S) (and T K))
       (or (not L) (and F1 I1))
       (or (not F1) (and V G1))
       (= N true)
       (not (= (<= I 0) F))
       (= 2 v_36)))
      )
      (main_1 v_36 H I J)
    )
  )
)
(assert
  (forall ( (A Int) (B Int) (C Int) (v_3 Int) ) 
    (=>
      (and
        (main_1 v_3 A B C)
        (= 2 v_3)
      )
      false
    )
  )
)

(check-sat)
(exit)
